#######################
Slurm job id: 17497813_63
Running on machine: p46
Running cmd: /nfs/shared/static-builds/gurobi1003 SOFTMEMLIMIT=125 MIPFocus=2 Presolve=2 TimeLimit=500 seed=12 /nfs/models/miplib2010/k16x240.mps.bz2
#######################
Set parameter TimeLimit to value 500
Set parameter SoftMemLimit to value 125
Set parameter MIPFocus to value 2
Set parameter LogFile to value 1003-MIPFocus2-Presolve2-TimeLimit500-k16x240-2.log
Set parameter Presolve to value 2
Set parameter Seed to value 12
Using license file /opt/gurobi/gurobi.lic

Gurobi Optimizer version 10.0.3 build v10.0.3rc0 (linux64)
Copyright (c) 2023, Gurobi Optimization, LLC

Read MPS format model from file /nfs/models/miplib2010/k16x240.mps.bz2
Reading time = 0.00 seconds
k16x240: 256 rows, 480 columns, 960 nonzeros

CPU model: Intel(R) Xeon(R) E-2388G CPU @ 3.20GHz, instruction set [SSE2|AVX|AVX2|AVX512]
Thread count: 8 physical cores, 16 logical processors, using up to 16 threads

Optimize a model with 256 rows, 480 columns and 960 nonzeros
Model fingerprint: 0x4e80885f
Variable types: 240 continuous, 240 integer (240 binary)
Coefficient statistics:
  Matrix range     [1e+00, 1e+03]
  Objective range  [1e+00, 1e+03]
  Bounds range     [1e+00, 1e+03]
  RHS range        [4e+00, 4e+02]
Found heuristic solution: objective 19617.000000
Presolve time: 0.00s
Presolved: 256 rows, 480 columns, 960 nonzeros
Variable types: 240 continuous, 240 integer (240 binary)
Root relaxation presolve removed 241 rows and 240 columns
Root relaxation presolved: 15 rows, 240 columns, 450 nonzeros


Root relaxation: objective 2.769838e+03, 16 iterations, 0.00 seconds (0.00 work units)

    Nodes    |    Current Node    |     Objective Bounds      |     Work
 Expl Unexpl |  Obj  Depth IntInf | Incumbent    BestBd   Gap | It/Node Time

     0     0 2769.83800    0   14 19617.0000 2769.83800  85.9%     -    0s
H    0     0                    11359.000000 2769.83800  75.6%     -    0s
H    0     0                    11119.000000 8116.87580  27.0%     -    0s
     0     0 8116.87580    0   26 11119.0000 8116.87580  27.0%     -    0s
H    0     0                    10852.000000 8116.87580  25.2%     -    0s
     0     0 8588.30479    0   25 10852.0000 8588.30479  20.9%     -    0s
     0     0 8613.92228    0   22 10852.0000 8613.92228  20.6%     -    0s
H    0     0                    10795.000000 8613.92228  20.2%     -    0s
H    0     0                    10779.000000 8613.92228  20.1%     -    0s
     0     0 8718.89135    0   20 10779.0000 8718.89135  19.1%     -    0s
H    0     0                    10678.000000 8718.89135  18.3%     -    0s
     0     0 8829.29741    0   34 10678.0000 8829.29741  17.3%     -    0s
     0     0 8841.79754    0   24 10678.0000 8841.79754  17.2%     -    0s
     0     0 8841.91257    0   36 10678.0000 8841.91257  17.2%     -    0s
     0     0 8969.30934    0   35 10678.0000 8969.30934  16.0%     -    0s
     0     0 9000.00825    0   26 10678.0000 9000.00825  15.7%     -    0s
     0     0 9003.95663    0   38 10678.0000 9003.95663  15.7%     -    0s
     0     0 9095.87014    0   39 10678.0000 9095.87014  14.8%     -    0s
     0     0 9102.05975    0   34 10678.0000 9102.05975  14.8%     -    0s
     0     0 9137.22705    0   36 10678.0000 9137.22705  14.4%     -    0s
     0     0 9137.22705    0   36 10678.0000 9137.22705  14.4%     -    0s
     0     2 9137.22705    0   36 10678.0000 9137.22705  14.4%     -    0s
H 1056   786                    10674.000000 9433.14863  11.6%  19.8    0s
 25778 10516 10129.9564   29   12 10674.0000 10024.2660  6.09%  26.5    5s
 71782 17700     cutoff   29      10674.0000 10239.4118  4.07%  27.5   10s
 106257 15130     cutoff   35      10674.0000 10366.0311  2.89%  28.1   15s

Cutting planes:
  Gomory: 1
  Lift-and-project: 21
  Cover: 85
  Implied bound: 15
  MIR: 188
  Flow cover: 280
  Flow path: 27
  Inf proof: 2
  Zero half: 6
  Network: 53
  Relax-and-lift: 1

Explored 144991 nodes (3983670 simplex iterations) in 19.16 seconds (28.80 work units)
Thread count was 16 (of 16 available processors)

Solution count 8: 10674 10678 10779 ... 19617

Optimal solution found (tolerance 1.00e-04)
Best objective 1.067400000000e+04, best bound 1.067400000000e+04, gap 0.0000%
